145
1000000
434713
508745
598754
346867
224162
181841
69284
461257
651753
292619
356129
113835
373644
682873
628657
132116
201405
583365
252330
113668
207696
607856
152846
592953
388377
112077
491255
439630
371343
40707
14174
624737
115503
40345
254879
430013
401246
743995
241887
191076
57695
242359
373979
105965
414764
451519
311149
162237
34680
626021
110181
542453
549586
450741
170787
174748
256005
102922
97828
481155
618529
6364
355106
433841
177703
348247
470633
264080
30203
288049
85252
159138
508223
178660
109783
310049
745121
711951
613668
395551
148454
128064
123929
60978
279879
221294
370220
334912
13996
498557
377852
243737
348680
641878
472333
173856
7374
317127
682795
70023
462365
71
145301
50790
314225
443748
77685
26997
146628
218820
66597
747670
50448
416635
124257
423402
267727
537540
644894
196098
375263
137788
407047
78357
381471
629780
233385
73596
104950
445481
457280
297484
432390
738552
692888
68914
392467
547999
83440
142810
700356
180955
103629
98881
119464
